698,382
702,427
804,575
831,406
1011,406
966,314
593,285
613,273
436,-75
254,189
521,325
356,457
382,818
575,512
710,410
609,458
593,420
311,526
609,354
633,371
702,385
681,346
695,318
844,86
1194,240
